<?xml version="1.0" encoding="UTF-8"?>
<Solution xmlns:xsi="http://www.w3.org/2001/XMLSchema-instance" xsi:noNamespaceSchemaLocation="solution.xsd">
	<SchedulingPeriodID>TOY1</SchedulingPeriodID>
	<Competitor>ME</Competitor>
	<SoftConstraintsPenalty>11</SoftConstraintsPenalty>
	<Assignment>
		<Date>2010-01-01</Date>
		<Employee>3</Employee>
		<ShiftType>E</ShiftType>
	</Assignment>
	<Assignment>
		<Date>2010-01-01</Date>
		<Employee>4</Employee>
		<ShiftType>E</ShiftType>
	</Assignment>
	<Assignment>
		<Date>2010-01-01</Date>
		<Employee>1</Employee>
		<ShiftType>L</ShiftType>
	</Assignment>
	<Assignment>
		<Date>2010-01-01</Date>
		<Employee>0</Employee>
		<ShiftType>L</ShiftType>
	</Assignment>
	<Assignment>
		<Date>2010-01-01</Date>
		<Employee>4</Employee>
		<ShiftType>N</ShiftType>
	</Assignment>
	<Assignment>
		<Date>2010-01-02</Date>
		<Employee>5</Employee>
		<ShiftType>E</ShiftType>
	</Assignment>
	<Assignment>
		<Date>2010-01-02</Date>
		<Employee>3</Employee>
		<ShiftType>E</ShiftType>
	</Assignment>
	<Assignment>
		<Date>2010-01-02</Date>
		<Employee>2</Employee>
		<ShiftType>L</ShiftType>
	</Assignment>
	<Assignment>
		<Date>2010-01-02</Date>
		<Employee>1</Employee>
		<ShiftType>L</ShiftType>
	</Assignment>
	<Assignment>
		<Date>2010-01-02</Date>
		<Employee>0</Employee>
		<ShiftType>N</ShiftType>
	</Assignment>
	<Assignment>
		<Date>2010-01-03</Date>
		<Employee>5</Employee>
		<ShiftType>E</ShiftType>
	</Assignment>
	<Assignment>
		<Date>2010-01-03</Date>
		<Employee>4</Employee>
		<ShiftType>E</ShiftType>
	</Assignment>
	<Assignment>
		<Date>2010-01-03</Date>
		<Employee>1</Employee>
		<ShiftType>L</ShiftType>
	</Assignment>
	<Assignment>
		<Date>2010-01-03</Date>
		<Employee>2</Employee>
		<ShiftType>L</ShiftType>
	</Assignment>
	<Assignment>
		<Date>2010-01-03</Date>
		<Employee>1</Employee>
		<ShiftType>N</ShiftType>
	</Assignment>
	<Assignment>
		<Date>2010-01-04</Date>
		<Employee>0</Employee>
		<ShiftType>E</ShiftType>
	</Assignment>
	<Assignment>
		<Date>2010-01-04</Date>
		<Employee>4</Employee>
		<ShiftType>L</ShiftType>
	</Assignment>
	<Assignment>
		<Date>2010-01-04</Date>
		<Employee>5</Employee>
		<ShiftType>E</ShiftType>
	</Assignment>
	<Assignment>
		<Date>2010-01-04</Date>
		<Employee>2</Employee>
		<ShiftType>N</ShiftType>
	</Assignment>
	<Assignment>
		<Date>2010-01-04</Date>
		<Employee>3</Employee>
		<ShiftType>L</ShiftType>
	</Assignment>
	<Assignment>
		<Date>2010-01-05</Date>
		<Employee>0</Employee>
		<ShiftType>E</ShiftType>
	</Assignment>
	<Assignment>
		<Date>2010-01-05</Date>
		<Employee>1</Employee>
		<ShiftType>E</ShiftType>
	</Assignment>
	<Assignment>
		<Date>2010-01-05</Date>
		<Employee>4</Employee>
		<ShiftType>L</ShiftType>
	</Assignment>
	<Assignment>
		<Date>2010-01-05</Date>
		<Employee>3</Employee>
		<ShiftType>L</ShiftType>
	</Assignment>
	<Assignment>
		<Date>2010-01-06</Date>
		<Employee>2</Employee>
		<ShiftType>E</ShiftType>
	</Assignment>
	<Assignment>
		<Date>2010-01-05</Date>
		<Employee>3</Employee>
		<ShiftType>N</ShiftType>
	</Assignment>
	<Assignment>
		<Date>2010-01-06</Date>
		<Employee>0</Employee>
		<ShiftType>L</ShiftType>
	</Assignment>
	<Assignment>
		<Date>2010-01-06</Date>
		<Employee>3</Employee>
		<ShiftType>E</ShiftType>
	</Assignment>
	<Assignment>
		<Date>2010-01-06</Date>
		<Employee>5</Employee>
		<ShiftType>N</ShiftType>
	</Assignment>
	<Assignment>
		<Date>2010-01-06</Date>
		<Employee>1</Employee>
		<ShiftType>L</ShiftType>
	</Assignment>
	<Assignment>
		<Date>2010-01-07</Date>
		<Employee>2</Employee>
		<ShiftType>E</ShiftType>
	</Assignment>
	<Assignment>
		<Date>2010-01-07</Date>
		<Employee>3</Employee>
		<ShiftType>E</ShiftType>
	</Assignment>
	<Assignment>
		<Date>2010-01-07</Date>
		<Employee>5</Employee>
		<ShiftType>N</ShiftType>
	</Assignment>
	<Assignment>
		<Date>2010-01-07</Date>
		<Employee>1</Employee>
		<ShiftType>L</ShiftType>
	</Assignment>
	<Assignment>
		<Date>2010-01-07</Date>
		<Employee>0</Employee>
		<ShiftType>L</ShiftType>
	</Assignment>
</Solution>
